CMPL model generation - running

CMPL version: 1.11.0
Authors: Thomas Schleiff, Mike Steglich
Distributed under the GPLv3 

create model instance ...
write model instance ...
CMPL model generation - finished

Solver - running


Welcome to IBM(R) ILOG(R) CPLEX(R) Interactive Optimizer 12.7.1.0
  with Simplex, Mixed Integer & Barrier Optimizers
5725-A06 5725-A29 5724-Y48 5724-Y49 5724-Y54 5724-Y55 5655-Y21
Copyright IBM Corp. 1988, 2017.  All Rights Reserved.

Type 'help' for a list of available commands.
Type 'help' followed by a command name for more
information on commands.

CPLEX> Specified objective sense: MINIMIZE
Selected objective  name:  line[1]
Selected RHS        name:  RHS
Selected bound      name:  BOUND
Problem '/tmp/cmpl.T23681.mps' read.
Read time = 0.05 sec. (8.16 ticks)
CPLEX> CPXPARAM_Read_APIEncoding                        "UTF-8"
Tried aggregator 3 times.
MIP Presolve eliminated 19282 rows and 30790 columns.
MIP Presolve modified 340 coefficients.
Aggregator did 607 substitutions.
Reduced MIP has 2466 rows, 3196 columns, and 9348 nonzeros.
Reduced MIP has 3028 binaries, 0 generals, 0 SOSs, and 0 indicators.
Presolve time = 0.05 sec. (40.27 ticks)
Found incumbent of value 491.705258 after 0.09 sec. (61.15 ticks)
Probing fixed 5 vars, tightened 0 bounds.
Probing time = 0.01 sec. (4.06 ticks)
Tried aggregator 1 time.
MIP Presolve eliminated 0 rows and 5 columns.
MIP Presolve modified 18 coefficients.
Reduced MIP has 2466 rows, 3191 columns, and 9338 nonzeros.
Reduced MIP has 3191 binaries, 0 generals, 0 SOSs, and 0 indicators.
Presolve time = 0.01 sec. (7.93 ticks)
Probing time = 0.01 sec. (2.68 ticks)
Clique table members: 5645.
MIP emphasis: balance optimality and feasibility.
MIP search method: dynamic search.
Parallel mode: none, using 1 thread.
Root relaxation solution time = 0.01 sec. (4.28 ticks)

        Nodes                                         Cuts/
   Node  Left     Objective  IInf  Best Integer    Best Bound    ItCnt     Gap

*     0+    0                          491.7053      -36.2446           107.37%
      0     0       55.3034    12      491.7053       55.3034       78   88.75%
*     0+    0                           73.2987       55.3034            24.55%
*     0+    0                           55.6463       55.3034             0.62%
      0     0       55.5840     3       55.6463      Cuts: 16       84    0.11%
*     0+    0                           55.6269       55.5840             0.08%
      0     0        cutoff             55.6269                     90    0.00%
Elapsed time = 0.16 sec. (105.92 ticks, tree = 0.01 MB, solutions = 4)

GUB cover cuts applied:  1
Clique cuts applied:  7
Cover cuts applied:  13
Gomory fractional cuts applied:  7

Root node processing (before b&c):
  Real time             =    0.16 sec. (107.64 ticks)
Sequential b&c:
  Real time             =    0.00 sec. (0.00 ticks)
                          ------------
Total (root+branch&cut) =    0.16 sec. (107.64 ticks)

Solution pool: 4 solutions saved.

MIP - Integer optimal solution:  Objective =  5.5626875000e+01
Solution time =    0.16 sec.  Iterations = 90  Nodes = 0
Deterministic time = 107.74 ticks  (657.95 ticks/sec)

CPLEX> Incumbent solution written to file '/tmp/cmpl.T23681.gsol'.
CPLEX> 
CMPL: Time used for model generation: 1 seconds
CMPL: Time used for solving the model: 1 seconds


Solution written to ASCII file: results/output_generated_conf_0.2/2016-06-06-4/fair-nonlinear.sol

Solver - finished
